1 1 2 0
1 3 -4 0
1 3 5 0
1 3 2 0
1 6 7 0
1 6 -8 0
1 6 -9 0
1 6 10 0
1 -6 -11 0
1 6 -12 0
1 6 -5 0
1 6 2 0
1 -9 -8 0
1 9 10 0
1 9 -11 0
1 -9 -12 0
1 -9 -6 0
1 9 5 0
1 -9 2 0
1 -10 13 0
1 10 -14 0
1 -10 -15 0
1 -10 16 0
1 -10 -17 0
1 10 -18 0
1 10 6 0
1 -2 -19 0
1 -2 -13 0
1 2 -9 0
1 2 3 0
1 -2 -10 0
1 -2 17 0
1 2 1 0
1 -4 -13 0
1 -4 -20 0
1 -4 21 0
1 -4 3 0
1 -4 16 0
1 -4 22 0
1 4 -6 0
1 4 -5 0
1 -5 -13 0
1 -5 -21 0
1 -5 -9 0
1 5 -3 0
1 -5 -6 0
1 -5 -1 0
1 -18 -8 0
1 -18 23 0
1 -18 10 0
1 -18 11 0
1 18 -12 0
1 18 2 0
1 -23 -7 0
1 23 21 0
1 -23 10 0
1 -23 11 0
1 23 -2 0
1 17 8 0
1 17 -14 0
1 17 11 0
1 -17 -24 0
1 -17 25 0
1 17 26 0
1 -14 -8 0
1 14 27 0
1 -14 -28 0
1 14 10 0
1 14 12 0
1 14 -17 0
1 14 -24 0
1 -14 26 0
1 -14 2 0
1 -12 -29 0
1 -12 30 0
1 12 14 0
1 12 23 0
1 -12 9 0
1 12 31 0
1 12 17 0
1 12 18 0
1 12 6 0
1 -12 -32 0
1 -8 -14 0
1 8 -23 0
1 -8 9 0
1 8 31 0
1 -8 17 0
1 -8 -6 0
1 8 -32 0
1 11 33 0
1 -11 13 0
1 -11 23 0
1 11 -9 0
1 -11 -31 0
1 -11 -16 0
1 -11 17 0
1 -11 18 0
1 -11 32 0
1 -7 -13 0
1 -7 9 0
1 7 31 0
1 -7 11 0
1 -7 34 0
1 7 -16 0
1 7 17 0
1 7 -18 0
1 -35 -30 0
1 -35 -8 0
1 35 27 0
1 -35 28 0
1 -35 12 0
1 -35 16 0
1 30 -8 0
1 -30 -13 0
1 30 -27 0
1 30 28 0
1 -30 35 0
1 30 -24 0
1 30 -26 0
1 -36 27 0
1 -36 28 0
1 36 12 0
1 36 24 0
1 36 26 0
1 -29 33 0
1 29 27 0
1 29 -28 0
1 -29 36 0
1 29 -12 0
1 -29 -26 0
1 26 14 0
1 26 28 0
1 26 36 0
1 -28 -29 0
1 28 -35 0
1 28 17 0
1 28 -26 0
1 -24 29 0
1 24 -30 0
1 -24 14 0
1 24 -27 0
1 24 -37 0
1 -24 31 0
1 -24 -35 0
1 -24 -17 0
1 -24 -38 0
1 -27 -29 0
1 27 14 0
1 27 37 0
1 27 31 0
1 -27 35 0
1 -27 -24 0
1 22 39 0
1 -22 21 0
1 22 40 0
1 22 18 0
1 -21 39 0
1 21 -41 0
1 21 22 0
1 21 5 0
1 -25 42 0
1 25 -43 0
1 -25 -4 0
1 25 41 0
1 -25 40 0
1 25 44 0
1 25 45 0
1 20 40 0
1 -20 39 0
1 -20 -42 0
1 20 -43 0
1 -20 -46 0
1 -20 -4 0
1 -20 25 0
1 20 -45 0
1 42 -13 0
1 42 21 0
1 42 -34 0
1 -42 -16 0
1 42 22 0
1 40 -33 0
1 -40 34 0
1 40 25 0
1 39 20 0
1 -39 21 0
1 39 41 0
1 -39 -25 0
1 39 22 0
1 41 -21 0
1 -41 25 0
1 -16 -7 0
1 -16 -13 0
1 16 46 0
1 -16 -10 0
1 -16 40 0
1 -16 45 0
1 -16 -5 0
1 16 2 0
1 13 30 0
1 -13 42 0
1 13 -43 0
1 13 4 0
1 13 -10 0
1 13 -16 0
1 -13 -40 0
1 13 44 0
1 13 45 0
1 -13 -5 0
1 -13 2 0
1 34 -19 0
1 -34 -43 0
1 -34 -15 0
1 -34 36 0
1 34 -40 0
1 34 44 0
1 -34 -45 0
1 34 47 0
1 -33 -7 0
1 -33 -42 0
1 33 46 0
1 -33 34 0
1 33 40 0
1 -33 44 0
1 33 45 0
1 33 47 0
1 46 33 0
1 46 -20 0
1 46 25 0
1 46 45 0
1 -46 -32 0
1 45 -33 0
1 -45 -13 0
1 -45 -20 0
1 -45 -46 0
1 45 37 0
1 45 34 0
1 45 -16 0
1 45 -32 0
1 -43 -33 0
1 43 20 0
1 -43 -34 0
1 -43 25 0
1 44 -33 0
1 -44 -13 0
1 44 43 0
1 44 16 0
1 44 -25 0
1 31 -19 0
1 31 -27 0
1 -31 46 0
1 31 48 0
1 -31 11 0
1 31 15 0
1 -31 12 0
1 -31 24 0
1 -32 15 0
1 32 11 0
1 -32 12 0
1 32 24 0
1 32 45 0
1 -37 19 0
1 37 27 0
1 -37 46 0
1 -37 -48 0
1 -37 -38 0
1 37 47 0
1 -38 -19 0
1 38 37 0
1 -38 -24 0
1 38 45 0
1 15 -33 0
1 15 37 0
1 -15 31 0
1 -15 10 0
1 -15 -32 0
1 19 37 0
1 -19 -31 0
1 19 -34 0
1 19 -38 0
1 48 -38 0
1 -48 -47 0
1 47 -37 0
1 -47 48 0
1 -47 34 0
1 -47 -38 0
